17	4
30	25	36	32	
0	0	0	0	0	3	2	3	4	
10	2	3	9	6	2	6	8	
9	10	4	1	6	3	5	6	7	
8	5	9	2	6	3	16	17	17	
6	4	6	3	6	3	11	12	17	
25	2	5	8	7	1	9	
250	2	10	8	5	3	12	16	17	
250	5	3	4	6	2	9	16	
250	4	3	2	7	3	10	17	17	
200	9	5	4	3	3	17	17	17	
100	4	4	7	7	2	14	17	
250	1	7	7	5	3	13	15	17	
4	6	5	2	6	2	17	17	
8	3	2	5	10	2	15	17	
9	3	5	7	5	1	17	
1	1	5	8	7	2	17	17	
0	0	0	0	0	0	
